p cnf 170 2135
1 2 3 4 5 6 7 8 9 10 11 12 13 14 15 16 17 0
18 19 20 21 22 23 24 25 26 27 28 29 30 31 32 33 34 0
35 36 37 38 39 40 41 42 43 44 45 46 47 48 49 50 51 0
52 53 54 55 56 57 58 59 60 61 62 63 64 65 66 67 68 0
69 70 71 72 73 74 75 76 77 78 79 80 81 82 83 84 85 0
86 87 88 89 90 91 92 93 94 95 96 97 98 99 100 101 102 0
103 104 105 106 107 108 109 110 111 112 113 114 115 116 117 118 119 0
120 121 122 123 124 125 126 127 128 129 130 131 132 133 134 135 136 0
137 138 139 140 141 142 143 144 145 146 147 148 149 150 151 152 153 0
154 155 156 157 158 159 160 161 162 163 164 165 166 167 168 169 170 0
-1 -2 0
-1 -3 0
-1 -4 0
-1 -5 0
-1 -6 0
-1 -7 0
-1 -8 0
-1 -9 0
-1 -10 0
-1 -11 0
-1 -12 0
-1 -13 0
-1 -14 0
-1 -15 0
-1 -16 0
-1 -17 0
-2 -3 0
-2 -4 0
-2 -5 0
-2 -6 0
-2 -7 0
-2 -8 0
-2 -9 0
-2 -10 0
-2 -11 0
-2 -12 0
-2 -13 0
-2 -14 0
-2 -15 0
-2 -16 0
-2 -17 0
-3 -4 0
-3 -5 0
-3 -6 0
-3 -7 0
-3 -8 0
-3 -9 0
-3 -10 0
-3 -11 0
-3 -12 0
-3 -13 0
-3 -14 0
-3 -15 0
-3 -16 0
-3 -17 0
-4 -5 0
-4 -6 0
-4 -7 0
-4 -8 0
-4 -9 0
-4 -10 0
-4 -11 0
-4 -12 0
-4 -13 0
-4 -14 0
-4 -15 0
-4 -16 0
-4 -17 0
-5 -6 0
-5 -7 0
-5 -8 0
-5 -9 0
-5 -10 0
-5 -11 0
-5 -12 0
-5 -13 0
-5 -14 0
-5 -15 0
-5 -16 0
-5 -17 0
-6 -7 0
-6 -8 0
-6 -9 0
-6 -10 0
-6 -11 0
-6 -12 0
-6 -13 0
-6 -14 0
-6 -15 0
-6 -16 0
-6 -17 0
-7 -8 0
-7 -9 0
-7 -10 0
-7 -11 0
-7 -12 0
-7 -13 0
-7 -14 0
-7 -15 0
-7 -16 0
-7 -17 0
-8 -9 0
-8 -10 0
-8 -11 0
-8 -12 0
-8 -13 0
-8 -14 0
-8 -15 0
-8 -16 0
-8 -17 0
-9 -10 0
-9 -11 0
-9 -12 0
-9 -13 0
-9 -14 0
-9 -15 0
-9 -16 0
-9 -17 0
-10 -11 0
-10 -12 0
-10 -13 0
-10 -14 0
-10 -15 0
-10 -16 0
-10 -17 0
-11 -12 0
-11 -13 0
-11 -14 0
-11 -15 0
-11 -16 0
-11 -17 0
-12 -13 0
-12 -14 0
-12 -15 0
-12 -16 0
-12 -17 0
-13 -14 0
-13 -15 0
-13 -16 0
-13 -17 0
-14 -15 0
-14 -16 0
-14 -17 0
-15 -16 0
-15 -17 0
-16 -17 0
-18 -19 0
-18 -20 0
-18 -21 0
-18 -22 0
-18 -23 0
-18 -24 0
-18 -25 0
-18 -26 0
-18 -27 0
-18 -28 0
-18 -29 0
-18 -30 0
-18 -31 0
-18 -32 0
-18 -33 0
-18 -34 0
-19 -20 0
-19 -21 0
-19 -22 0
-19 -23 0
-19 -24 0
-19 -25 0
-19 -26 0
-19 -27 0
-19 -28 0
-19 -29 0
-19 -30 0
-19 -31 0
-19 -32 0
-19 -33 0
-19 -34 0
-20 -21 0
-20 -22 0
-20 -23 0
-20 -24 0
-20 -25 0
-20 -26 0
-20 -27 0
-20 -28 0
-20 -29 0
-20 -30 0
-20 -31 0
-20 -32 0
-20 -33 0
-20 -34 0
-21 -22 0
-21 -23 0
-21 -24 0
-21 -25 0
-21 -26 0
-21 -27 0
-21 -28 0
-21 -29 0
-21 -30 0
-21 -31 0
-21 -32 0
-21 -33 0
-21 -34 0
-22 -23 0
-22 -24 0
-22 -25 0
-22 -26 0
-22 -27 0
-22 -28 0
-22 -29 0
-22 -30 0
-22 -31 0
-22 -32 0
-22 -33 0
-22 -34 0
-23 -24 0
-23 -25 0
-23 -26 0
-23 -27 0
-23 -28 0
-23 -29 0
-23 -30 0
-23 -31 0
-23 -32 0
-23 -33 0
-23 -34 0
-24 -25 0
-24 -26 0
-24 -27 0
-24 -28 0
-24 -29 0
-24 -30 0
-24 -31 0
-24 -32 0
-24 -33 0
-24 -34 0
-25 -26 0
-25 -27 0
-25 -28 0
-25 -29 0
-25 -30 0
-25 -31 0
-25 -32 0
-25 -33 0
-25 -34 0
-26 -27 0
-26 -28 0
-26 -29 0
-26 -30 0
-26 -31 0
-26 -32 0
-26 -33 0
-26 -34 0
-27 -28 0
-27 -29 0
-27 -30 0
-27 -31 0
-27 -32 0
-27 -33 0
-27 -34 0
-28 -29 0
-28 -30 0
-28 -31 0
-28 -32 0
-28 -33 0
-28 -34 0
-29 -30 0
-29 -31 0
-29 -32 0
-29 -33 0
-29 -34 0
-30 -31 0
-30 -32 0
-30 -33 0
-30 -34 0
-31 -32 0
-31 -33 0
-31 -34 0
-32 -33 0
-32 -34 0
-33 -34 0
-35 -36 0
-35 -37 0
-35 -38 0
-35 -39 0
-35 -40 0
-35 -41 0
-35 -42 0
-35 -43 0
-35 -44 0
-35 -45 0
-35 -46 0
-35 -47 0
-35 -48 0
-35 -49 0
-35 -50 0
-35 -51 0
-36 -37 0
-36 -38 0
-36 -39 0
-36 -40 0
-36 -41 0
-36 -42 0
-36 -43 0
-36 -44 0
-36 -45 0
-36 -46 0
-36 -47 0
-36 -48 0
-36 -49 0
-36 -50 0
-36 -51 0
-37 -38 0
-37 -39 0
-37 -40 0
-37 -41 0
-37 -42 0
-37 -43 0
-37 -44 0
-37 -45 0
-37 -46 0
-37 -47 0
-37 -48 0
-37 -49 0
-37 -50 0
-37 -51 0
-38 -39 0
-38 -40 0
-38 -41 0
-38 -42 0
-38 -43 0
-38 -44 0
-38 -45 0
-38 -46 0
-38 -47 0
-38 -48 0
-38 -49 0
-38 -50 0
-38 -51 0
-39 -40 0
-39 -41 0
-39 -42 0
-39 -43 0
-39 -44 0
-39 -45 0
-39 -46 0
-39 -47 0
-39 -48 0
-39 -49 0
-39 -50 0
-39 -51 0
-40 -41 0
-40 -42 0
-40 -43 0
-40 -44 0
-40 -45 0
-40 -46 0
-40 -47 0
-40 -48 0
-40 -49 0
-40 -50 0
-40 -51 0
-41 -42 0
-41 -43 0
-41 -44 0
-41 -45 0
-41 -46 0
-41 -47 0
-41 -48 0
-41 -49 0
-41 -50 0
-41 -51 0
-42 -43 0
-42 -44 0
-42 -45 0
-42 -46 0
-42 -47 0
-42 -48 0
-42 -49 0
-42 -50 0
-42 -51 0
-43 -44 0
-43 -45 0
-43 -46 0
-43 -47 0
-43 -48 0
-43 -49 0
-43 -50 0
-43 -51 0
-44 -45 0
-44 -46 0
-44 -47 0
-44 -48 0
-44 -49 0
-44 -50 0
-44 -51 0
-45 -46 0
-45 -47 0
-45 -48 0
-45 -49 0
-45 -50 0
-45 -51 0
-46 -47 0
-46 -48 0
-46 -49 0
-46 -50 0
-46 -51 0
-47 -48 0
-47 -49 0
-47 -50 0
-47 -51 0
-48 -49 0
-48 -50 0
-48 -51 0
-49 -50 0
-49 -51 0
-50 -51 0
-52 -53 0
-52 -54 0
-52 -55 0
-52 -56 0
-52 -57 0
-52 -58 0
-52 -59 0
-52 -60 0
-52 -61 0
-52 -62 0
-52 -63 0
-52 -64 0
-52 -65 0
-52 -66 0
-52 -67 0
-52 -68 0
-53 -54 0
-53 -55 0
-53 -56 0
-53 -57 0
-53 -58 0
-53 -59 0
-53 -60 0
-53 -61 0
-53 -62 0
-53 -63 0
-53 -64 0
-53 -65 0
-53 -66 0
-53 -67 0
-53 -68 0
-54 -55 0
-54 -56 0
-54 -57 0
-54 -58 0
-54 -59 0
-54 -60 0
-54 -61 0
-54 -62 0
-54 -63 0
-54 -64 0
-54 -65 0
-54 -66 0
-54 -67 0
-54 -68 0
-55 -56 0
-55 -57 0
-55 -58 0
-55 -59 0
-55 -60 0
-55 -61 0
-55 -62 0
-55 -63 0
-55 -64 0
-55 -65 0
-55 -66 0
-55 -67 0
-55 -68 0
-56 -57 0
-56 -58 0
-56 -59 0
-56 -60 0
-56 -61 0
-56 -62 0
-56 -63 0
-56 -64 0
-56 -65 0
-56 -66 0
-56 -67 0
-56 -68 0
-57 -58 0
-57 -59 0
-57 -60 0
-57 -61 0
-57 -62 0
-57 -63 0
-57 -64 0
-57 -65 0
-57 -66 0
-57 -67 0
-57 -68 0
-58 -59 0
-58 -60 0
-58 -61 0
-58 -62 0
-58 -63 0
-58 -64 0
-58 -65 0
-58 -66 0
-58 -67 0
-58 -68 0
-59 -60 0
-59 -61 0
-59 -62 0
-59 -63 0
-59 -64 0
-59 -65 0
-59 -66 0
-59 -67 0
-59 -68 0
-60 -61 0
-60 -62 0
-60 -63 0
-60 -64 0
-60 -65 0
-60 -66 0
-60 -67 0
-60 -68 0
-61 -62 0
-61 -63 0
-61 -64 0
-61 -65 0
-61 -66 0
-61 -67 0
-61 -68 0
-62 -63 0
-62 -64 0
-62 -65 0
-62 -66 0
-62 -67 0
-62 -68 0
-63 -64 0
-63 -65 0
-63 -66 0
-63 -67 0
-63 -68 0
-64 -65 0
-64 -66 0
-64 -67 0
-64 -68 0
-65 -66 0
-65 -67 0
-65 -68 0
-66 -67 0
-66 -68 0
-67 -68 0
-69 -70 0
-69 -71 0
-69 -72 0
-69 -73 0
-69 -74 0
-69 -75 0
-69 -76 0
-69 -77 0
-69 -78 0
-69 -79 0
-69 -80 0
-69 -81 0
-69 -82 0
-69 -83 0
-69 -84 0
-69 -85 0
-70 -71 0
-70 -72 0
-70 -73 0
-70 -74 0
-70 -75 0
-70 -76 0
-70 -77 0
-70 -78 0
-70 -79 0
-70 -80 0
-70 -81 0
-70 -82 0
-70 -83 0
-70 -84 0
-70 -85 0
-71 -72 0
-71 -73 0
-71 -74 0
-71 -75 0
-71 -76 0
-71 -77 0
-71 -78 0
-71 -79 0
-71 -80 0
-71 -81 0
-71 -82 0
-71 -83 0
-71 -84 0
-71 -85 0
-72 -73 0
-72 -74 0
-72 -75 0
-72 -76 0
-72 -77 0
-72 -78 0
-72 -79 0
-72 -80 0
-72 -81 0
-72 -82 0
-72 -83 0
-72 -84 0
-72 -85 0
-73 -74 0
-73 -75 0
-73 -76 0
-73 -77 0
-73 -78 0
-73 -79 0
-73 -80 0
-73 -81 0
-73 -82 0
-73 -83 0
-73 -84 0
-73 -85 0
-74 -75 0
-74 -76 0
-74 -77 0
-74 -78 0
-74 -79 0
-74 -80 0
-74 -81 0
-74 -82 0
-74 -83 0
-74 -84 0
-74 -85 0
-75 -76 0
-75 -77 0
-75 -78 0
-75 -79 0
-75 -80 0
-75 -81 0
-75 -82 0
-75 -83 0
-75 -84 0
-75 -85 0
-76 -77 0
-76 -78 0
-76 -79 0
-76 -80 0
-76 -81 0
-76 -82 0
-76 -83 0
-76 -84 0
-76 -85 0
-77 -78 0
-77 -79 0
-77 -80 0
-77 -81 0
-77 -82 0
-77 -83 0
-77 -84 0
-77 -85 0
-78 -79 0
-78 -80 0
-78 -81 0
-78 -82 0
-78 -83 0
-78 -84 0
-78 -85 0
-79 -80 0
-79 -81 0
-79 -82 0
-79 -83 0
-79 -84 0
-79 -85 0
-80 -81 0
-80 -82 0
-80 -83 0
-80 -84 0
-80 -85 0
-81 -82 0
-81 -83 0
-81 -84 0
-81 -85 0
-82 -83 0
-82 -84 0
-82 -85 0
-83 -84 0
-83 -85 0
-84 -85 0
-86 -87 0
-86 -88 0
-86 -89 0
-86 -90 0
-86 -91 0
-86 -92 0
-86 -93 0
-86 -94 0
-86 -95 0
-86 -96 0
-86 -97 0
-86 -98 0
-86 -99 0
-86 -100 0
-86 -101 0
-86 -102 0
-87 -88 0
-87 -89 0
-87 -90 0
-87 -91 0
-87 -92 0
-87 -93 0
-87 -94 0
-87 -95 0
-87 -96 0
-87 -97 0
-87 -98 0
-87 -99 0
-87 -100 0
-87 -101 0
-87 -102 0
-88 -89 0
-88 -90 0
-88 -91 0
-88 -92 0
-88 -93 0
-88 -94 0
-88 -95 0
-88 -96 0
-88 -97 0
-88 -98 0
-88 -99 0
-88 -100 0
-88 -101 0
-88 -102 0
-89 -90 0
-89 -91 0
-89 -92 0
-89 -93 0
-89 -94 0
-89 -95 0
-89 -96 0
-89 -97 0
-89 -98 0
-89 -99 0
-89 -100 0
-89 -101 0
-89 -102 0
-90 -91 0
-90 -92 0
-90 -93 0
-90 -94 0
-90 -95 0
-90 -96 0
-90 -97 0
-90 -98 0
-90 -99 0
-90 -100 0
-90 -101 0
-90 -102 0
-91 -92 0
-91 -93 0
-91 -94 0
-91 -95 0
-91 -96 0
-91 -97 0
-91 -98 0
-91 -99 0
-91 -100 0
-91 -101 0
-91 -102 0
-92 -93 0
-92 -94 0
-92 -95 0
-92 -96 0
-92 -97 0
-92 -98 0
-92 -99 0
-92 -100 0
-92 -101 0
-92 -102 0
-93 -94 0
-93 -95 0
-93 -96 0
-93 -97 0
-93 -98 0
-93 -99 0
-93 -100 0
-93 -101 0
-93 -102 0
-94 -95 0
-94 -96 0
-94 -97 0
-94 -98 0
-94 -99 0
-94 -100 0
-94 -101 0
-94 -102 0
-95 -96 0
-95 -97 0
-95 -98 0
-95 -99 0
-95 -100 0
-95 -101 0
-95 -102 0
-96 -97 0
-96 -98 0
-96 -99 0
-96 -100 0
-96 -101 0
-96 -102 0
-97 -98 0
-97 -99 0
-97 -100 0
-97 -101 0
-97 -102 0
-98 -99 0
-98 -100 0
-98 -101 0
-98 -102 0
-99 -100 0
-99 -101 0
-99 -102 0
-100 -101 0
-100 -102 0
-101 -102 0
-103 -104 0
-103 -105 0
-103 -106 0
-103 -107 0
-103 -108 0
-103 -109 0
-103 -110 0
-103 -111 0
-103 -112 0
-103 -113 0
-103 -114 0
-103 -115 0
-103 -116 0
-103 -117 0
-103 -118 0
-103 -119 0
-104 -105 0
-104 -106 0
-104 -107 0
-104 -108 0
-104 -109 0
-104 -110 0
-104 -111 0
-104 -112 0
-104 -113 0
-104 -114 0
-104 -115 0
-104 -116 0
-104 -117 0
-104 -118 0
-104 -119 0
-105 -106 0
-105 -107 0
-105 -108 0
-105 -109 0
-105 -110 0
-105 -111 0
-105 -112 0
-105 -113 0
-105 -114 0
-105 -115 0
-105 -116 0
-105 -117 0
-105 -118 0
-105 -119 0
-106 -107 0
-106 -108 0
-106 -109 0
-106 -110 0
-106 -111 0
-106 -112 0
-106 -113 0
-106 -114 0
-106 -115 0
-106 -116 0
-106 -117 0
-106 -118 0
-106 -119 0
-107 -108 0
-107 -109 0
-107 -110 0
-107 -111 0
-107 -112 0
-107 -113 0
-107 -114 0
-107 -115 0
-107 -116 0
-107 -117 0
-107 -118 0
-107 -119 0
-108 -109 0
-108 -110 0
-108 -111 0
-108 -112 0
-108 -113 0
-108 -114 0
-108 -115 0
-108 -116 0
-108 -117 0
-108 -118 0
-108 -119 0
-109 -110 0
-109 -111 0
-109 -112 0
-109 -113 0
-109 -114 0
-109 -115 0
-109 -116 0
-109 -117 0
-109 -118 0
-109 -119 0
-110 -111 0
-110 -112 0
-110 -113 0
-110 -114 0
-110 -115 0
-110 -116 0
-110 -117 0
-110 -118 0
-110 -119 0
-111 -112 0
-111 -113 0
-111 -114 0
-111 -115 0
-111 -116 0
-111 -117 0
-111 -118 0
-111 -119 0
-112 -113 0
-112 -114 0
-112 -115 0
-112 -116 0
-112 -117 0
-112 -118 0
-112 -119 0
-113 -114 0
-113 -115 0
-113 -116 0
-113 -117 0
-113 -118 0
-113 -119 0
-114 -115 0
-114 -116 0
-114 -117 0
-114 -118 0
-114 -119 0
-115 -116 0
-115 -117 0
-115 -118 0
-115 -119 0
-116 -117 0
-116 -118 0
-116 -119 0
-117 -118 0
-117 -119 0
-118 -119 0
-120 -121 0
-120 -122 0
-120 -123 0
-120 -124 0
-120 -125 0
-120 -126 0
-120 -127 0
-120 -128 0
-120 -129 0
-120 -130 0
-120 -131 0
-120 -132 0
-120 -133 0
-120 -134 0
-120 -135 0
-120 -136 0
-121 -122 0
-121 -123 0
-121 -124 0
-121 -125 0
-121 -126 0
-121 -127 0
-121 -128 0
-121 -129 0
-121 -130 0
-121 -131 0
-121 -132 0
-121 -133 0
-121 -134 0
-121 -135 0
-121 -136 0
-122 -123 0
-122 -124 0
-122 -125 0
-122 -126 0
-122 -127 0
-122 -128 0
-122 -129 0
-122 -130 0
-122 -131 0
-122 -132 0
-122 -133 0
-122 -134 0
-122 -135 0
-122 -136 0
-123 -124 0
-123 -125 0
-123 -126 0
-123 -127 0
-123 -128 0
-123 -129 0
-123 -130 0
-123 -131 0
-123 -132 0
-123 -133 0
-123 -134 0
-123 -135 0
-123 -136 0
-124 -125 0
-124 -126 0
-124 -127 0
-124 -128 0
-124 -129 0
-124 -130 0
-124 -131 0
-124 -132 0
-124 -133 0
-124 -134 0
-124 -135 0
-124 -136 0
-125 -126 0
-125 -127 0
-125 -128 0
-125 -129 0
-125 -130 0
-125 -131 0
-125 -132 0
-125 -133 0
-125 -134 0
-125 -135 0
-125 -136 0
-126 -127 0
-126 -128 0
-126 -129 0
-126 -130 0
-126 -131 0
-126 -132 0
-126 -133 0
-126 -134 0
-126 -135 0
-126 -136 0
-127 -128 0
-127 -129 0
-127 -130 0
-127 -131 0
-127 -132 0
-127 -133 0
-127 -134 0
-127 -135 0
-127 -136 0
-128 -129 0
-128 -130 0
-128 -131 0
-128 -132 0
-128 -133 0
-128 -134 0
-128 -135 0
-128 -136 0
-129 -130 0
-129 -131 0
-129 -132 0
-129 -133 0
-129 -134 0
-129 -135 0
-129 -136 0
-130 -131 0
-130 -132 0
-130 -133 0
-130 -134 0
-130 -135 0
-130 -136 0
-131 -132 0
-131 -133 0
-131 -134 0
-131 -135 0
-131 -136 0
-132 -133 0
-132 -134 0
-132 -135 0
-132 -136 0
-133 -134 0
-133 -135 0
-133 -136 0
-134 -135 0
-134 -136 0
-135 -136 0
-137 -138 0
-137 -139 0
-137 -140 0
-137 -141 0
-137 -142 0
-137 -143 0
-137 -144 0
-137 -145 0
-137 -146 0
-137 -147 0
-137 -148 0
-137 -149 0
-137 -150 0
-137 -151 0
-137 -152 0
-137 -153 0
-138 -139 0
-138 -140 0
-138 -141 0
-138 -142 0
-138 -143 0
-138 -144 0
-138 -145 0
-138 -146 0
-138 -147 0
-138 -148 0
-138 -149 0
-138 -150 0
-138 -151 0
-138 -152 0
-138 -153 0
-139 -140 0
-139 -141 0
-139 -142 0
-139 -143 0
-139 -144 0
-139 -145 0
-139 -146 0
-139 -147 0
-139 -148 0
-139 -149 0
-139 -150 0
-139 -151 0
-139 -152 0
-139 -153 0
-140 -141 0
-140 -142 0
-140 -143 0
-140 -144 0
-140 -145 0
-140 -146 0
-140 -147 0
-140 -148 0
-140 -149 0
-140 -150 0
-140 -151 0
-140 -152 0
-140 -153 0
-141 -142 0
-141 -143 0
-141 -144 0
-141 -145 0
-141 -146 0
-141 -147 0
-141 -148 0
-141 -149 0
-141 -150 0
-141 -151 0
-141 -152 0
-141 -153 0
-142 -143 0
-142 -144 0
-142 -145 0
-142 -146 0
-142 -147 0
-142 -148 0
-142 -149 0
-142 -150 0
-142 -151 0
-142 -152 0
-142 -153 0
-143 -144 0
-143 -145 0
-143 -146 0
-143 -147 0
-143 -148 0
-143 -149 0
-143 -150 0
-143 -151 0
-143 -152 0
-143 -153 0
-144 -145 0
-144 -146 0
-144 -147 0
-144 -148 0
-144 -149 0
-144 -150 0
-144 -151 0
-144 -152 0
-144 -153 0
-145 -146 0
-145 -147 0
-145 -148 0
-145 -149 0
-145 -150 0
-145 -151 0
-145 -152 0
-145 -153 0
-146 -147 0
-146 -148 0
-146 -149 0
-146 -150 0
-146 -151 0
-146 -152 0
-146 -153 0
-147 -148 0
-147 -149 0
-147 -150 0
-147 -151 0
-147 -152 0
-147 -153 0
-148 -149 0
-148 -150 0
-148 -151 0
-148 -152 0
-148 -153 0
-149 -150 0
-149 -151 0
-149 -152 0
-149 -153 0
-150 -151 0
-150 -152 0
-150 -153 0
-151 -152 0
-151 -153 0
-152 -153 0
-154 -155 0
-154 -156 0
-154 -157 0
-154 -158 0
-154 -159 0
-154 -160 0
-154 -161 0
-154 -162 0
-154 -163 0
-154 -164 0
-154 -165 0
-154 -166 0
-154 -167 0
-154 -168 0
-154 -169 0
-154 -170 0
-155 -156 0
-155 -157 0
-155 -158 0
-155 -159 0
-155 -160 0
-155 -161 0
-155 -162 0
-155 -163 0
-155 -164 0
-155 -165 0
-155 -166 0
-155 -167 0
-155 -168 0
-155 -169 0
-155 -170 0
-156 -157 0
-156 -158 0
-156 -159 0
-156 -160 0
-156 -161 0
-156 -162 0
-156 -163 0
-156 -164 0
-156 -165 0
-156 -166 0
-156 -167 0
-156 -168 0
-156 -169 0
-156 -170 0
-157 -158 0
-157 -159 0
-157 -160 0
-157 -161 0
-157 -162 0
-157 -163 0
-157 -164 0
-157 -165 0
-157 -166 0
-157 -167 0
-157 -168 0
-157 -169 0
-157 -170 0
-158 -159 0
-158 -160 0
-158 -161 0
-158 -162 0
-158 -163 0
-158 -164 0
-158 -165 0
-158 -166 0
-158 -167 0
-158 -168 0
-158 -169 0
-158 -170 0
-159 -160 0
-159 -161 0
-159 -162 0
-159 -163 0
-159 -164 0
-159 -165 0
-159 -166 0
-159 -167 0
-159 -168 0
-159 -169 0
-159 -170 0
-160 -161 0
-160 -162 0
-160 -163 0
-160 -164 0
-160 -165 0
-160 -166 0
-160 -167 0
-160 -168 0
-160 -169 0
-160 -170 0
-161 -162 0
-161 -163 0
-161 -164 0
-161 -165 0
-161 -166 0
-161 -167 0
-161 -168 0
-161 -169 0
-161 -170 0
-162 -163 0
-162 -164 0
-162 -165 0
-162 -166 0
-162 -167 0
-162 -168 0
-162 -169 0
-162 -170 0
-163 -164 0
-163 -165 0
-163 -166 0
-163 -167 0
-163 -168 0
-163 -169 0
-163 -170 0
-164 -165 0
-164 -166 0
-164 -167 0
-164 -168 0
-164 -169 0
-164 -170 0
-165 -166 0
-165 -167 0
-165 -168 0
-165 -169 0
-165 -170 0
-166 -167 0
-166 -168 0
-166 -169 0
-166 -170 0
-167 -168 0
-167 -169 0
-167 -170 0
-168 -169 0
-168 -170 0
-169 -170 0
-1 -18 0
-2 -19 0
-3 -20 0
-4 -21 0
-5 -22 0
-6 -23 0
-7 -24 0
-8 -25 0
-9 -26 0
-10 -27 0
-11 -28 0
-12 -29 0
-13 -30 0
-14 -31 0
-15 -32 0
-16 -33 0
-17 -34 0
-1 -35 0
-2 -36 0
-3 -37 0
-4 -38 0
-5 -39 0
-6 -40 0
-7 -41 0
-8 -42 0
-9 -43 0
-10 -44 0
-11 -45 0
-12 -46 0
-13 -47 0
-14 -48 0
-15 -49 0
-16 -50 0
-17 -51 0
-1 -52 0
-2 -53 0
-3 -54 0
-4 -55 0
-5 -56 0
-6 -57 0
-7 -58 0
-8 -59 0
-9 -60 0
-10 -61 0
-11 -62 0
-12 -63 0
-13 -64 0
-14 -65 0
-15 -66 0
-16 -67 0
-17 -68 0
-1 -69 0
-2 -70 0
-3 -71 0
-4 -72 0
-5 -73 0
-6 -74 0
-7 -75 0
-8 -76 0
-9 -77 0
-10 -78 0
-11 -79 0
-12 -80 0
-13 -81 0
-14 -82 0
-15 -83 0
-16 -84 0
-17 -85 0
-1 -86 0
-2 -87 0
-3 -88 0
-4 -89 0
-5 -90 0
-6 -91 0
-7 -92 0
-8 -93 0
-9 -94 0
-10 -95 0
-11 -96 0
-12 -97 0
-13 -98 0
-14 -99 0
-15 -100 0
-16 -101 0
-17 -102 0
-1 -103 0
-2 -104 0
-3 -105 0
-4 -106 0
-5 -107 0
-6 -108 0
-7 -109 0
-8 -110 0
-9 -111 0
-10 -112 0
-11 -113 0
-12 -114 0
-13 -115 0
-14 -116 0
-15 -117 0
-16 -118 0
-17 -119 0
-1 -120 0
-2 -121 0
-3 -122 0
-4 -123 0
-5 -124 0
-6 -125 0
-7 -126 0
-8 -127 0
-9 -128 0
-10 -129 0
-11 -130 0
-12 -131 0
-13 -132 0
-14 -133 0
-15 -134 0
-16 -135 0
-17 -136 0
-1 -137 0
-2 -138 0
-3 -139 0
-4 -140 0
-5 -141 0
-6 -142 0
-7 -143 0
-8 -144 0
-9 -145 0
-10 -146 0
-11 -147 0
-12 -148 0
-13 -149 0
-14 -150 0
-15 -151 0
-16 -152 0
-17 -153 0
-1 -154 0
-2 -155 0
-3 -156 0
-4 -157 0
-5 -158 0
-6 -159 0
-7 -160 0
-8 -161 0
-9 -162 0
-10 -163 0
-11 -164 0
-12 -165 0
-13 -166 0
-14 -167 0
-15 -168 0
-16 -169 0
-17 -170 0
-18 -35 0
-19 -36 0
-20 -37 0
-21 -38 0
-22 -39 0
-23 -40 0
-24 -41 0
-25 -42 0
-26 -43 0
-27 -44 0
-28 -45 0
-29 -46 0
-30 -47 0
-31 -48 0
-32 -49 0
-33 -50 0
-34 -51 0
-18 -52 0
-19 -53 0
-20 -54 0
-21 -55 0
-22 -56 0
-23 -57 0
-24 -58 0
-25 -59 0
-26 -60 0
-27 -61 0
-28 -62 0
-29 -63 0
-30 -64 0
-31 -65 0
-32 -66 0
-33 -67 0
-34 -68 0
-18 -69 0
-19 -70 0
-20 -71 0
-21 -72 0
-22 -73 0
-23 -74 0
-24 -75 0
-25 -76 0
-26 -77 0
-27 -78 0
-28 -79 0
-29 -80 0
-30 -81 0
-31 -82 0
-32 -83 0
-33 -84 0
-34 -85 0
-18 -86 0
-19 -87 0
-20 -88 0
-21 -89 0
-22 -90 0
-23 -91 0
-24 -92 0
-25 -93 0
-26 -94 0
-27 -95 0
-28 -96 0
-29 -97 0
-30 -98 0
-31 -99 0
-32 -100 0
-33 -101 0
-34 -102 0
-18 -103 0
-19 -104 0
-20 -105 0
-21 -106 0
-22 -107 0
-23 -108 0
-24 -109 0
-25 -110 0
-26 -111 0
-27 -112 0
-28 -113 0
-29 -114 0
-30 -115 0
-31 -116 0
-32 -117 0
-33 -118 0
-34 -119 0
-18 -120 0
-19 -121 0
-20 -122 0
-21 -123 0
-22 -124 0
-23 -125 0
-24 -126 0
-25 -127 0
-26 -128 0
-27 -129 0
-28 -130 0
-29 -131 0
-30 -132 0
-31 -133 0
-32 -134 0
-33 -135 0
-34 -136 0
-18 -137 0
-19 -138 0
-20 -139 0
-21 -140 0
-22 -141 0
-23 -142 0
-24 -143 0
-25 -144 0
-26 -145 0
-27 -146 0
-28 -147 0
-29 -148 0
-30 -149 0
-31 -150 0
-32 -151 0
-33 -152 0
-34 -153 0
-18 -154 0
-19 -155 0
-20 -156 0
-21 -157 0
-22 -158 0
-23 -159 0
-24 -160 0
-25 -161 0
-26 -162 0
-27 -163 0
-28 -164 0
-29 -165 0
-30 -166 0
-31 -167 0
-32 -168 0
-33 -169 0
-34 -170 0
-35 -52 0
-36 -53 0
-37 -54 0
-38 -55 0
-39 -56 0
-40 -57 0
-41 -58 0
-42 -59 0
-43 -60 0
-44 -61 0
-45 -62 0
-46 -63 0
-47 -64 0
-48 -65 0
-49 -66 0
-50 -67 0
-51 -68 0
-35 -69 0
-36 -70 0
-37 -71 0
-38 -72 0
-39 -73 0
-40 -74 0
-41 -75 0
-42 -76 0
-43 -77 0
-44 -78 0
-45 -79 0
-46 -80 0
-47 -81 0
-48 -82 0
-49 -83 0
-50 -84 0
-51 -85 0
-35 -86 0
-36 -87 0
-37 -88 0
-38 -89 0
-39 -90 0
-40 -91 0
-41 -92 0
-42 -93 0
-43 -94 0
-44 -95 0
-45 -96 0
-46 -97 0
-47 -98 0
-48 -99 0
-49 -100 0
-50 -101 0
-51 -102 0
-35 -103 0
-36 -104 0
-37 -105 0
-38 -106 0
-39 -107 0
-40 -108 0
-41 -109 0
-42 -110 0
-43 -111 0
-44 -112 0
-45 -113 0
-46 -114 0
-47 -115 0
-48 -116 0
-49 -117 0
-50 -118 0
-51 -119 0
-35 -120 0
-36 -121 0
-37 -122 0
-38 -123 0
-39 -124 0
-40 -125 0
-41 -126 0
-42 -127 0
-43 -128 0
-44 -129 0
-45 -130 0
-46 -131 0
-47 -132 0
-48 -133 0
-49 -134 0
-50 -135 0
-51 -136 0
-35 -137 0
-36 -138 0
-37 -139 0
-38 -140 0
-39 -141 0
-40 -142 0
-41 -143 0
-42 -144 0
-43 -145 0
-44 -146 0
-45 -147 0
-46 -148 0
-47 -149 0
-48 -150 0
-49 -151 0
-50 -152 0
-51 -153 0
-35 -154 0
-36 -155 0
-37 -156 0
-38 -157 0
-39 -158 0
-40 -159 0
-41 -160 0
-42 -161 0
-43 -162 0
-44 -163 0
-45 -164 0
-46 -165 0
-47 -166 0
-48 -167 0
-49 -168 0
-50 -169 0
-51 -170 0
-52 -69 0
-53 -70 0
-54 -71 0
-55 -72 0
-56 -73 0
-57 -74 0
-58 -75 0
-59 -76 0
-60 -77 0
-61 -78 0
-62 -79 0
-63 -80 0
-64 -81 0
-65 -82 0
-66 -83 0
-67 -84 0
-68 -85 0
-52 -86 0
-53 -87 0
-54 -88 0
-55 -89 0
-56 -90 0
-57 -91 0
-58 -92 0
-59 -93 0
-60 -94 0
-61 -95 0
-62 -96 0
-63 -97 0
-64 -98 0
-65 -99 0
-66 -100 0
-67 -101 0
-68 -102 0
-52 -103 0
-53 -104 0
-54 -105 0
-55 -106 0
-56 -107 0
-57 -108 0
-58 -109 0
-59 -110 0
-60 -111 0
-61 -112 0
-62 -113 0
-63 -114 0
-64 -115 0
-65 -116 0
-66 -117 0
-67 -118 0
-68 -119 0
-52 -120 0
-53 -121 0
-54 -122 0
-55 -123 0
-56 -124 0
-57 -125 0
-58 -126 0
-59 -127 0
-60 -128 0
-61 -129 0
-62 -130 0
-63 -131 0
-64 -132 0
-65 -133 0
-66 -134 0
-67 -135 0
-68 -136 0
-52 -137 0
-53 -138 0
-54 -139 0
-55 -140 0
-56 -141 0
-57 -142 0
-58 -143 0
-59 -144 0
-60 -145 0
-61 -146 0
-62 -147 0
-63 -148 0
-64 -149 0
-65 -150 0
-66 -151 0
-67 -152 0
-68 -153 0
-52 -154 0
-53 -155 0
-54 -156 0
-55 -157 0
-56 -158 0
-57 -159 0
-58 -160 0
-59 -161 0
-60 -162 0
-61 -163 0
-62 -164 0
-63 -165 0
-64 -166 0
-65 -167 0
-66 -168 0
-67 -169 0
-68 -170 0
-69 -86 0
-70 -87 0
-71 -88 0
-72 -89 0
-73 -90 0
-74 -91 0
-75 -92 0
-76 -93 0
-77 -94 0
-78 -95 0
-79 -96 0
-80 -97 0
-81 -98 0
-82 -99 0
-83 -100 0
-84 -101 0
-85 -102 0
-69 -103 0
-70 -104 0
-71 -105 0
-72 -106 0
-73 -107 0
-74 -108 0
-75 -109 0
-76 -110 0
-77 -111 0
-78 -112 0
-79 -113 0
-80 -114 0
-81 -115 0
-82 -116 0
-83 -117 0
-84 -118 0
-85 -119 0
-69 -120 0
-70 -121 0
-71 -122 0
-72 -123 0
-73 -124 0
-74 -125 0
-75 -126 0
-76 -127 0
-77 -128 0
-78 -129 0
-79 -130 0
-80 -131 0
-81 -132 0
-82 -133 0
-83 -134 0
-84 -135 0
-85 -136 0
-69 -137 0
-70 -138 0
-71 -139 0
-72 -140 0
-73 -141 0
-74 -142 0
-75 -143 0
-76 -144 0
-77 -145 0
-78 -146 0
-79 -147 0
-80 -148 0
-81 -149 0
-82 -150 0
-83 -151 0
-84 -152 0
-85 -153 0
-69 -154 0
-70 -155 0
-71 -156 0
-72 -157 0
-73 -158 0
-74 -159 0
-75 -160 0
-76 -161 0
-77 -162 0
-78 -163 0
-79 -164 0
-80 -165 0
-81 -166 0
-82 -167 0
-83 -168 0
-84 -169 0
-85 -170 0
-86 -103 0
-87 -104 0
-88 -105 0
-89 -106 0
-90 -107 0
-91 -108 0
-92 -109 0
-93 -110 0
-94 -111 0
-95 -112 0
-96 -113 0
-97 -114 0
-98 -115 0
-99 -116 0
-100 -117 0
-101 -118 0
-102 -119 0
-86 -120 0
-87 -121 0
-88 -122 0
-89 -123 0
-90 -124 0
-91 -125 0
-92 -126 0
-93 -127 0
-94 -128 0
-95 -129 0
-96 -130 0
-97 -131 0
-98 -132 0
-99 -133 0
-100 -134 0
-101 -135 0
-102 -136 0
-86 -137 0
-87 -138 0
-88 -139 0
-89 -140 0
-90 -141 0
-91 -142 0
-92 -143 0
-93 -144 0
-94 -145 0
-95 -146 0
-96 -147 0
-97 -148 0
-98 -149 0
-99 -150 0
-100 -151 0
-101 -152 0
-102 -153 0
-86 -154 0
-87 -155 0
-88 -156 0
-89 -157 0
-90 -158 0
-91 -159 0
-92 -160 0
-93 -161 0
-94 -162 0
-95 -163 0
-96 -164 0
-97 -165 0
-98 -166 0
-99 -167 0
-100 -168 0
-101 -169 0
-102 -170 0
-103 -120 0
-104 -121 0
-105 -122 0
-106 -123 0
-107 -124 0
-108 -125 0
-109 -126 0
-110 -127 0
-111 -128 0
-112 -129 0
-113 -130 0
-114 -131 0
-115 -132 0
-116 -133 0
-117 -134 0
-118 -135 0
-119 -136 0
-103 -137 0
-104 -138 0
-105 -139 0
-106 -140 0
-107 -141 0
-108 -142 0
-109 -143 0
-110 -144 0
-111 -145 0
-112 -146 0
-113 -147 0
-114 -148 0
-115 -149 0
-116 -150 0
-117 -151 0
-118 -152 0
-119 -153 0
-103 -154 0
-104 -155 0
-105 -156 0
-106 -157 0
-107 -158 0
-108 -159 0
-109 -160 0
-110 -161 0
-111 -162 0
-112 -163 0
-113 -164 0
-114 -165 0
-115 -166 0
-116 -167 0
-117 -168 0
-118 -169 0
-119 -170 0
-120 -137 0
-121 -138 0
-122 -139 0
-123 -140 0
-124 -141 0
-125 -142 0
-126 -143 0
-127 -144 0
-128 -145 0
-129 -146 0
-130 -147 0
-131 -148 0
-132 -149 0
-133 -150 0
-134 -151 0
-135 -152 0
-136 -153 0
-120 -154 0
-121 -155 0
-122 -156 0
-123 -157 0
-124 -158 0
-125 -159 0
-126 -160 0
-127 -161 0
-128 -162 0
-129 -163 0
-130 -164 0
-131 -165 0
-132 -166 0
-133 -167 0
-134 -168 0
-135 -169 0
-136 -170 0
-137 -154 0
-138 -155 0
-139 -156 0
-140 -157 0
-141 -158 0
-142 -159 0
-143 -160 0
-144 -161 0
-145 -162 0
-146 -163 0
-147 -164 0
-148 -165 0
-149 -166 0
-150 -167 0
-151 -168 0
-152 -169 0
-153 -170 0
